c File: flat100_3_0.col
c
c SOURCE: Joseph Culberson (joe@cs.ualberta.ca)
c DESCRIPTION: Quasi-random coloring problem
c              generated with flatness = 0
c                             probability = 0.072
c                             known coloring = 3
c                             random seed = 1019
c              Creation Date:  Thu Jun  4 18:55:05 1998
c Maximum degree = 8 Minimum degree = 1
c p edge 100 239
c cnf created by edge2cnf
p cnf 300 1117
-1 -2 0
-1 -3 0
-2 -3 0
1 2 3 0
-4 -5 0
-4 -6 0
-5 -6 0
4 5 6 0
-7 -8 0
-7 -9 0
-8 -9 0
7 8 9 0
-10 -11 0
-10 -12 0
-11 -12 0
10 11 12 0
-13 -14 0
-13 -15 0
-14 -15 0
13 14 15 0
-16 -17 0
-16 -18 0
-17 -18 0
16 17 18 0
-19 -20 0
-19 -21 0
-20 -21 0
19 20 21 0
-22 -23 0
-22 -24 0
-23 -24 0
22 23 24 0
-25 -26 0
-25 -27 0
-26 -27 0
25 26 27 0
-28 -29 0
-28 -30 0
-29 -30 0
28 29 30 0
-31 -32 0
-31 -33 0
-32 -33 0
31 32 33 0
-34 -35 0
-34 -36 0
-35 -36 0
34 35 36 0
-37 -38 0
-37 -39 0
-38 -39 0
37 38 39 0
-40 -41 0
-40 -42 0
-41 -42 0
40 41 42 0
-43 -44 0
-43 -45 0
-44 -45 0
43 44 45 0
-46 -47 0
-46 -48 0
-47 -48 0
46 47 48 0
-49 -50 0
-49 -51 0
-50 -51 0
49 50 51 0
-52 -53 0
-52 -54 0
-53 -54 0
52 53 54 0
-55 -56 0
-55 -57 0
-56 -57 0
55 56 57 0
-58 -59 0
-58 -60 0
-59 -60 0
58 59 60 0
-61 -62 0
-61 -63 0
-62 -63 0
61 62 63 0
-64 -65 0
-64 -66 0
-65 -66 0
64 65 66 0
-67 -68 0
-67 -69 0
-68 -69 0
67 68 69 0
-70 -71 0
-70 -72 0
-71 -72 0
70 71 72 0
-73 -74 0
-73 -75 0
-74 -75 0
73 74 75 0
-76 -77 0
-76 -78 0
-77 -78 0
76 77 78 0
-79 -80 0
-79 -81 0
-80 -81 0
79 80 81 0
-82 -83 0
-82 -84 0
-83 -84 0
82 83 84 0
-85 -86 0
-85 -87 0
-86 -87 0
85 86 87 0
-88 -89 0
-88 -90 0
-89 -90 0
88 89 90 0
-91 -92 0
-91 -93 0
-92 -93 0
91 92 93 0
-94 -95 0
-94 -96 0
-95 -96 0
94 95 96 0
-97 -98 0
-97 -99 0
-98 -99 0
97 98 99 0
-100 -101 0
-100 -102 0
-101 -102 0
100 101 102 0
-103 -104 0
-103 -105 0
-104 -105 0
103 104 105 0
-106 -107 0
-106 -108 0
-107 -108 0
106 107 108 0
-109 -110 0
-109 -111 0
-110 -111 0
109 110 111 0
-112 -113 0
-112 -114 0
-113 -114 0
112 113 114 0
-115 -116 0
-115 -117 0
-116 -117 0
115 116 117 0
-118 -119 0
-118 -120 0
-119 -120 0
118 119 120 0
-121 -122 0
-121 -123 0
-122 -123 0
121 122 123 0
-124 -125 0
-124 -126 0
-125 -126 0
124 125 126 0
-127 -128 0
-127 -129 0
-128 -129 0
127 128 129 0
-130 -131 0
-130 -132 0
-131 -132 0
130 131 132 0
-133 -134 0
-133 -135 0
-134 -135 0
133 134 135 0
-136 -137 0
-136 -138 0
-137 -138 0
136 137 138 0
-139 -140 0
-139 -141 0
-140 -141 0
139 140 141 0
-142 -143 0
-142 -144 0
-143 -144 0
142 143 144 0
-145 -146 0
-145 -147 0
-146 -147 0
145 146 147 0
-148 -149 0
-148 -150 0
-149 -150 0
148 149 150 0
-151 -152 0
-151 -153 0
-152 -153 0
151 152 153 0
-154 -155 0
-154 -156 0
-155 -156 0
154 155 156 0
-157 -158 0
-157 -159 0
-158 -159 0
157 158 159 0
-160 -161 0
-160 -162 0
-161 -162 0
160 161 162 0
-163 -164 0
-163 -165 0
-164 -165 0
163 164 165 0
-166 -167 0
-166 -168 0
-167 -168 0
166 167 168 0
-169 -170 0
-169 -171 0
-170 -171 0
169 170 171 0
-172 -173 0
-172 -174 0
-173 -174 0
172 173 174 0
-175 -176 0
-175 -177 0
-176 -177 0
175 176 177 0
-178 -179 0
-178 -180 0
-179 -180 0
178 179 180 0
-181 -182 0
-181 -183 0
-182 -183 0
181 182 183 0
-184 -185 0
-184 -186 0
-185 -186 0
184 185 186 0
-187 -188 0
-187 -189 0
-188 -189 0
187 188 189 0
-190 -191 0
-190 -192 0
-191 -192 0
190 191 192 0
-193 -194 0
-193 -195 0
-194 -195 0
193 194 195 0
-196 -197 0
-196 -198 0
-197 -198 0
196 197 198 0
-199 -200 0
-199 -201 0
-200 -201 0
199 200 201 0
-202 -203 0
-202 -204 0
-203 -204 0
202 203 204 0
-205 -206 0
-205 -207 0
-206 -207 0
205 206 207 0
-208 -209 0
-208 -210 0
-209 -210 0
208 209 210 0
-211 -212 0
-211 -213 0
-212 -213 0
211 212 213 0
-214 -215 0
-214 -216 0
-215 -216 0
214 215 216 0
-217 -218 0
-217 -219 0
-218 -219 0
217 218 219 0
-220 -221 0
-220 -222 0
-221 -222 0
220 221 222 0
-223 -224 0
-223 -225 0
-224 -225 0
223 224 225 0
-226 -227 0
-226 -228 0
-227 -228 0
226 227 228 0
-229 -230 0
-229 -231 0
-230 -231 0
229 230 231 0
-232 -233 0
-232 -234 0
-233 -234 0
232 233 234 0
-235 -236 0
-235 -237 0
-236 -237 0
235 236 237 0
-238 -239 0
-238 -240 0
-239 -240 0
238 239 240 0
-241 -242 0
-241 -243 0
-242 -243 0
241 242 243 0
-244 -245 0
-244 -246 0
-245 -246 0
244 245 246 0
-247 -248 0
-247 -249 0
-248 -249 0
247 248 249 0
-250 -251 0
-250 -252 0
-251 -252 0
250 251 252 0
-253 -254 0
-253 -255 0
-254 -255 0
253 254 255 0
-256 -257 0
-256 -258 0
-257 -258 0
256 257 258 0
-259 -260 0
-259 -261 0
-260 -261 0
259 260 261 0
-262 -263 0
-262 -264 0
-263 -264 0
262 263 264 0
-265 -266 0
-265 -267 0
-266 -267 0
265 266 267 0
-268 -269 0
-268 -270 0
-269 -270 0
268 269 270 0
-271 -272 0
-271 -273 0
-272 -273 0
271 272 273 0
-274 -275 0
-274 -276 0
-275 -276 0
274 275 276 0
-277 -278 0
-277 -279 0
-278 -279 0
277 278 279 0
-280 -281 0
-280 -282 0
-281 -282 0
280 281 282 0
-283 -284 0
-283 -285 0
-284 -285 0
283 284 285 0
-286 -287 0
-286 -288 0
-287 -288 0
286 287 288 0
-289 -290 0
-289 -291 0
-290 -291 0
289 290 291 0
-292 -293 0
-292 -294 0
-293 -294 0
292 293 294 0
-295 -296 0
-295 -297 0
-296 -297 0
295 296 297 0
-298 -299 0
-298 -300 0
-299 -300 0
298 299 300 0
-253 -1 0
-254 -2 0
-255 -3 0
-274 -1 0
-275 -2 0
-276 -3 0
-286 -1 0
-287 -2 0
-288 -3 0
-289 -1 0
-290 -2 0
-291 -3 0
-127 -4 0
-128 -5 0
-129 -6 0
-145 -4 0
-146 -5 0
-147 -6 0
-166 -4 0
-167 -5 0
-168 -6 0
-175 -4 0
-176 -5 0
-177 -6 0
-220 -4 0
-221 -5 0
-222 -6 0
-247 -4 0
-248 -5 0
-249 -6 0
-253 -4 0
-254 -5 0
-255 -6 0
-256 -4 0
-257 -5 0
-258 -6 0
-124 -7 0
-125 -8 0
-126 -9 0
-196 -7 0
-197 -8 0
-198 -9 0
-223 -7 0
-224 -8 0
-225 -9 0
-235 -7 0
-236 -8 0
-237 -9 0
-280 -7 0
-281 -8 0
-282 -9 0
-142 -10 0
-143 -11 0
-144 -12 0
-160 -10 0
-161 -11 0
-162 -12 0
-217 -10 0
-218 -11 0
-219 -12 0
-235 -10 0
-236 -11 0
-237 -12 0
-277 -10 0
-278 -11 0
-279 -12 0
-298 -10 0
-299 -11 0
-300 -12 0
-112 -13 0
-113 -14 0
-114 -15 0
-130 -13 0
-131 -14 0
-132 -15 0
-154 -13 0
-155 -14 0
-156 -15 0
-205 -13 0
-206 -14 0
-207 -15 0
-211 -13 0
-212 -14 0
-213 -15 0
-232 -13 0
-233 -14 0
-234 -15 0
-295 -13 0
-296 -14 0
-297 -15 0
-109 -16 0
-110 -17 0
-111 -18 0
-133 -16 0
-134 -17 0
-135 -18 0
-169 -16 0
-170 -17 0
-171 -18 0
-217 -16 0
-218 -17 0
-219 -18 0
-229 -16 0
-230 -17 0
-231 -18 0
-271 -16 0
-272 -17 0
-273 -18 0
-103 -19 0
-104 -20 0
-105 -21 0
-139 -19 0
-140 -20 0
-141 -21 0
-145 -19 0
-146 -20 0
-147 -21 0
-193 -19 0
-194 -20 0
-195 -21 0
-277 -19 0
-278 -20 0
-279 -21 0
-103 -22 0
-104 -23 0
-105 -24 0
-157 -22 0
-158 -23 0
-159 -24 0
-199 -22 0
-200 -23 0
-201 -24 0
-166 -25 0
-167 -26 0
-168 -27 0
-172 -25 0
-173 -26 0
-174 -27 0
-184 -25 0
-185 -26 0
-186 -27 0
-229 -25 0
-230 -26 0
-231 -27 0
-238 -25 0
-239 -26 0
-240 -27 0
-142 -28 0
-143 -29 0
-144 -30 0
-172 -28 0
-173 -29 0
-174 -30 0
-193 -28 0
-194 -29 0
-195 -30 0
-202 -28 0
-203 -29 0
-204 -30 0
-220 -28 0
-221 -29 0
-222 -30 0
-250 -28 0
-251 -29 0
-252 -30 0
-256 -28 0
-257 -29 0
-258 -30 0
-127 -31 0
-128 -32 0
-129 -33 0
-145 -31 0
-146 -32 0
-147 -33 0
-184 -31 0
-185 -32 0
-186 -33 0
-289 -31 0
-290 -32 0
-291 -33 0
-292 -31 0
-293 -32 0
-294 -33 0
-124 -34 0
-125 -35 0
-126 -36 0
-169 -34 0
-170 -35 0
-171 -36 0
-205 -34 0
-206 -35 0
-207 -36 0
-259 -34 0
-260 -35 0
-261 -36 0
-262 -34 0
-263 -35 0
-264 -36 0
-292 -34 0
-293 -35 0
-294 -36 0
-124 -37 0
-125 -38 0
-126 -39 0
-169 -37 0
-170 -38 0
-171 -39 0
-202 -37 0
-203 -38 0
-204 -39 0
-214 -37 0
-215 -38 0
-216 -39 0
-238 -37 0
-239 -38 0
-240 -39 0
-103 -40 0
-104 -41 0
-105 -42 0
-133 -40 0
-134 -41 0
-135 -42 0
-178 -40 0
-179 -41 0
-180 -42 0
-181 -40 0
-182 -41 0
-183 -42 0
-223 -40 0
-224 -41 0
-225 -42 0
-229 -40 0
-230 -41 0
-231 -42 0
-292 -40 0
-293 -41 0
-294 -42 0
-169 -43 0
-170 -44 0
-171 -45 0
-235 -43 0
-236 -44 0
-237 -45 0
-157 -46 0
-158 -47 0
-159 -48 0
-172 -46 0
-173 -47 0
-174 -48 0
-217 -46 0
-218 -47 0
-219 -48 0
-259 -46 0
-260 -47 0
-261 -48 0
-151 -49 0
-152 -50 0
-153 -51 0
-250 -49 0
-251 -50 0
-252 -51 0
-268 -49 0
-269 -50 0
-270 -51 0
-118 -52 0
-119 -53 0
-120 -54 0
-139 -52 0
-140 -53 0
-141 -54 0
-151 -52 0
-152 -53 0
-153 -54 0
-175 -52 0
-176 -53 0
-177 -54 0
-265 -52 0
-266 -53 0
-267 -54 0
-121 -55 0
-122 -56 0
-123 -57 0
-190 -55 0
-191 -56 0
-192 -57 0
-208 -55 0
-209 -56 0
-210 -57 0
-250 -55 0
-251 -56 0
-252 -57 0
-295 -55 0
-296 -56 0
-297 -57 0
-118 -58 0
-119 -59 0
-120 -60 0
-148 -58 0
-149 -59 0
-150 -60 0
-199 -58 0
-200 -59 0
-201 -60 0
-232 -58 0
-233 -59 0
-234 -60 0
-247 -58 0
-248 -59 0
-249 -60 0
-298 -58 0
-299 -59 0
-300 -60 0
-157 -61 0
-158 -62 0
-159 -63 0
-172 -61 0
-173 -62 0
-174 -63 0
-295 -61 0
-296 -62 0
-297 -63 0
-130 -64 0
-131 -65 0
-132 -66 0
-178 -64 0
-179 -65 0
-180 -66 0
-220 -64 0
-221 -65 0
-222 -66 0
-241 -64 0
-242 -65 0
-243 -66 0
-274 -64 0
-275 -65 0
-276 -66 0
-295 -64 0
-296 -65 0
-297 -66 0
-121 -67 0
-122 -68 0
-123 -69 0
-151 -67 0
-152 -68 0
-153 -69 0
-259 -67 0
-260 -68 0
-261 -69 0
-283 -67 0
-284 -68 0
-285 -69 0
-136 -70 0
-137 -71 0
-138 -72 0
-178 -70 0
-179 -71 0
-180 -72 0
-202 -70 0
-203 -71 0
-204 -72 0
-232 -70 0
-233 -71 0
-234 -72 0
-130 -73 0
-131 -74 0
-132 -75 0
-151 -73 0
-152 -74 0
-153 -75 0
-160 -73 0
-161 -74 0
-162 -75 0
-214 -73 0
-215 -74 0
-216 -75 0
-238 -73 0
-239 -74 0
-240 -75 0
-139 -76 0
-140 -77 0
-141 -78 0
-178 -76 0
-179 -77 0
-180 -78 0
-190 -76 0
-191 -77 0
-192 -78 0
-289 -76 0
-290 -77 0
-291 -78 0
-130 -79 0
-131 -80 0
-132 -81 0
-187 -79 0
-188 -80 0
-189 -81 0
-214 -79 0
-215 -80 0
-216 -81 0
-253 -79 0
-254 -80 0
-255 -81 0
-175 -82 0
-176 -83 0
-177 -84 0
-223 -82 0
-224 -83 0
-225 -84 0
-124 -85 0
-125 -86 0
-126 -87 0
-145 -85 0
-146 -86 0
-147 -87 0
-184 -85 0
-185 -86 0
-186 -87 0
-274 -85 0
-275 -86 0
-276 -87 0
-277 -85 0
-278 -86 0
-279 -87 0
-127 -88 0
-128 -89 0
-129 -90 0
-223 -88 0
-224 -89 0
-225 -90 0
-277 -88 0
-278 -89 0
-279 -90 0
-157 -91 0
-158 -92 0
-159 -93 0
-265 -91 0
-266 -92 0
-267 -93 0
-268 -91 0
-269 -92 0
-270 -93 0
-283 -91 0
-284 -92 0
-285 -93 0
-106 -94 0
-107 -95 0
-108 -96 0
-127 -94 0
-128 -95 0
-129 -96 0
-160 -94 0
-161 -95 0
-162 -96 0
-175 -94 0
-176 -95 0
-177 -96 0
-232 -94 0
-233 -95 0
-234 -96 0
-193 -97 0
-194 -98 0
-195 -99 0
-238 -97 0
-239 -98 0
-240 -99 0
-274 -97 0
-275 -98 0
-276 -99 0
-115 -100 0
-116 -101 0
-117 -102 0
-139 -100 0
-140 -101 0
-141 -102 0
-187 -100 0
-188 -101 0
-189 -102 0
-214 -100 0
-215 -101 0
-216 -102 0
-250 -100 0
-251 -101 0
-252 -102 0
-232 -103 0
-233 -104 0
-234 -105 0
-262 -103 0
-263 -104 0
-264 -105 0
-280 -103 0
-281 -104 0
-282 -105 0
-292 -103 0
-293 -104 0
-294 -105 0
-226 -106 0
-227 -107 0
-228 -108 0
-229 -106 0
-230 -107 0
-231 -108 0
-223 -109 0
-224 -110 0
-225 -111 0
-211 -112 0
-212 -113 0
-213 -114 0
-223 -112 0
-224 -113 0
-225 -114 0
-232 -112 0
-233 -113 0
-234 -114 0
-211 -118 0
-212 -119 0
-213 -120 0
-238 -118 0
-239 -119 0
-240 -120 0
-232 -121 0
-233 -122 0
-234 -123 0
-280 -121 0
-281 -122 0
-282 -123 0
-295 -121 0
-296 -122 0
-297 -123 0
-217 -124 0
-218 -125 0
-219 -126 0
-223 -124 0
-224 -125 0
-225 -126 0
-232 -124 0
-233 -125 0
-234 -126 0
-277 -124 0
-278 -125 0
-279 -126 0
-202 -127 0
-203 -128 0
-204 -129 0
-223 -127 0
-224 -128 0
-225 -129 0
-214 -130 0
-215 -131 0
-216 -132 0
-253 -130 0
-254 -131 0
-255 -132 0
-235 -133 0
-236 -134 0
-237 -135 0
-238 -133 0
-239 -134 0
-240 -135 0
-277 -133 0
-278 -134 0
-279 -135 0
-286 -133 0
-287 -134 0
-288 -135 0
-214 -136 0
-215 -137 0
-216 -138 0
-250 -136 0
-251 -137 0
-252 -138 0
-265 -136 0
-266 -137 0
-267 -138 0
-247 -142 0
-248 -143 0
-249 -144 0
-283 -142 0
-284 -143 0
-285 -144 0
-286 -142 0
-287 -143 0
-288 -144 0
-226 -145 0
-227 -146 0
-228 -147 0
-214 -148 0
-215 -149 0
-216 -150 0
-235 -148 0
-236 -149 0
-237 -150 0
-241 -148 0
-242 -149 0
-243 -150 0
-256 -148 0
-257 -149 0
-258 -150 0
-229 -151 0
-230 -152 0
-231 -153 0
-247 -151 0
-248 -152 0
-249 -153 0
-265 -151 0
-266 -152 0
-267 -153 0
-250 -154 0
-251 -155 0
-252 -156 0
-286 -157 0
-287 -158 0
-288 -159 0
-205 -160 0
-206 -161 0
-207 -162 0
-241 -160 0
-242 -161 0
-243 -162 0
-259 -160 0
-260 -161 0
-261 -162 0
-280 -163 0
-281 -164 0
-282 -165 0
-295 -163 0
-296 -164 0
-297 -165 0
-298 -163 0
-299 -164 0
-300 -165 0
-229 -166 0
-230 -167 0
-231 -168 0
-253 -166 0
-254 -167 0
-255 -168 0
-265 -166 0
-266 -167 0
-267 -168 0
-295 -166 0
-296 -167 0
-297 -168 0
-205 -169 0
-206 -170 0
-207 -171 0
-241 -169 0
-242 -170 0
-243 -171 0
-211 -175 0
-212 -176 0
-213 -177 0
-253 -178 0
-254 -179 0
-255 -180 0
-235 -181 0
-236 -182 0
-237 -183 0
-238 -181 0
-239 -182 0
-240 -183 0
-289 -181 0
-290 -182 0
-291 -183 0
-298 -181 0
-299 -182 0
-300 -183 0
-259 -184 0
-260 -185 0
-261 -186 0
-250 -187 0
-251 -188 0
-252 -189 0
-202 -190 0
-203 -191 0
-204 -192 0
-205 -190 0
-206 -191 0
-207 -192 0
-217 -190 0
-218 -191 0
-219 -192 0
-235 -190 0
-236 -191 0
-237 -192 0
-226 -193 0
-227 -194 0
-228 -195 0
-241 -193 0
-242 -194 0
-243 -195 0
-283 -193 0
-284 -194 0
-285 -195 0
-295 -193 0
-296 -194 0
-297 -195 0
-226 -196 0
-227 -197 0
-228 -198 0
-247 -196 0
-248 -197 0
-249 -198 0
-262 -196 0
-263 -197 0
-264 -198 0
-280 -196 0
-281 -197 0
-282 -198 0
-217 -199 0
-218 -200 0
-219 -201 0
-244 -199 0
-245 -200 0
-246 -201 0
-271 -199 0
-272 -200 0
-273 -201 0
